p cnf 1057 2821
-151 -1 0
-151 -2 0
151 1 2 0
-152 -1 0
-152 -3 0
152 1 3 0
-153 -3 0
-153 -148 0
153 3 148 0
-154 -4 0
-154 5 0
154 4 -5 0
-155 4 0
-155 -5 0
155 -4 5 0
-156 6 0
-156 -7 0
156 -6 7 0
-157 -6 0
-157 7 0
157 6 -7 0
-158 8 0
-158 -9 0
158 -8 9 0
-159 -8 0
-159 9 0
159 8 -9 0
-160 10 0
-160 -11 0
160 -10 11 0
-161 -10 0
-161 11 0
161 10 -11 0
-162 12 0
-162 -13 0
162 -12 13 0
-163 -12 0
-163 13 0
163 12 -13 0
-164 14 0
-164 -15 0
164 -14 15 0
-165 -14 0
-165 15 0
165 14 -15 0
-166 16 0
-166 -17 0
166 -16 17 0
-167 -16 0
-167 17 0
167 16 -17 0
-168 18 0
-168 -19 0
168 -18 19 0
-169 -18 0
-169 19 0
169 18 -19 0
-170 20 0
-170 -21 0
170 -20 21 0
-171 -20 0
-171 21 0
171 20 -21 0
-172 22 0
-172 -23 0
172 -22 23 0
-173 -22 0
-173 23 0
173 22 -23 0
-174 24 0
-174 -25 0
174 -24 25 0
-175 -24 0
-175 25 0
175 24 -25 0
-176 26 0
-176 -27 0
176 -26 27 0
-177 -26 0
-177 27 0
177 26 -27 0
-178 28 0
-178 -29 0
178 -28 29 0
-179 -28 0
-179 29 0
179 28 -29 0
-180 30 0
-180 -31 0
180 -30 31 0
-181 -30 0
-181 31 0
181 30 -31 0
-182 32 0
-182 -33 0
182 -32 33 0
-183 -32 0
-183 33 0
183 32 -33 0
-184 34 0
-184 -35 0
184 -34 35 0
-185 -34 0
-185 35 0
185 34 -35 0
-186 36 0
-186 -37 0
186 -36 37 0
-187 -36 0
-187 37 0
187 36 -37 0
-188 38 0
-188 -39 0
188 -38 39 0
-189 -38 0
-189 39 0
189 38 -39 0
-190 40 0
-190 -41 0
190 -40 41 0
-191 -40 0
-191 41 0
191 40 -41 0
-192 42 0
-192 -43 0
192 -42 43 0
-193 -42 0
-193 43 0
193 42 -43 0
-194 44 0
-194 -45 0
194 -44 45 0
-195 -44 0
-195 45 0
195 44 -45 0
-196 46 0
-196 -47 0
196 -46 47 0
-197 -46 0
-197 47 0
197 46 -47 0
-198 48 0
-198 -49 0
198 -48 49 0
-199 -48 0
-199 49 0
199 48 -49 0
-200 50 0
-200 -51 0
200 -50 51 0
-201 -199 0
-201 200 0
201 199 -200 0
-202 -198 0
-202 -201 0
202 198 201 0
-203 -197 0
-203 -202 0
203 197 202 0
-204 -196 0
-204 -203 0
204 196 203 0
-205 -195 0
-205 -204 0
205 195 204 0
-206 -194 0
-206 -205 0
206 194 205 0
-207 -193 0
-207 -206 0
207 193 206 0
-208 -192 0
-208 -207 0
208 192 207 0
-209 -191 0
-209 -208 0
209 191 208 0
-210 -190 0
-210 -209 0
210 190 209 0
-211 -189 0
-211 -210 0
211 189 210 0
-212 -188 0
-212 -211 0
212 188 211 0
-213 -187 0
-213 -212 0
213 187 212 0
-214 -186 0
-214 -213 0
214 186 213 0
-215 -185 0
-215 -214 0
215 185 214 0
-216 -184 0
-216 -215 0
216 184 215 0
-217 -183 0
-217 -216 0
217 183 216 0
-218 -182 0
-218 -217 0
218 182 217 0
-219 -181 0
-219 -218 0
219 181 218 0
-220 -180 0
-220 -219 0
220 180 219 0
-221 -179 0
-221 -220 0
221 179 220 0
-222 -178 0
-222 -221 0
222 178 221 0
-223 -177 0
-223 -222 0
223 177 222 0
-224 -176 0
-224 -223 0
224 176 223 0
-225 -175 0
-225 -224 0
225 175 224 0
-226 -174 0
-226 -225 0
226 174 225 0
-227 -173 0
-227 -226 0
227 173 226 0
-228 -172 0
-228 -227 0
228 172 227 0
-229 -171 0
-229 -228 0
229 171 228 0
-230 -170 0
-230 -229 0
230 170 229 0
-231 -169 0
-231 -230 0
231 169 230 0
-232 -168 0
-232 -231 0
232 168 231 0
-233 -167 0
-233 -232 0
233 167 232 0
-234 -166 0
-234 -233 0
234 166 233 0
-235 -165 0
-235 -234 0
235 165 234 0
-236 -164 0
-236 -235 0
236 164 235 0
-237 -163 0
-237 -236 0
237 163 236 0
-238 -162 0
-238 -237 0
238 162 237 0
-239 -161 0
-239 -238 0
239 161 238 0
-240 -160 0
-240 -239 0
240 160 239 0
-241 -159 0
-241 -240 0
241 159 240 0
-242 -158 0
-242 -241 0
242 158 241 0
-243 -157 0
-243 -242 0
243 157 242 0
-244 -156 0
-244 -243 0
244 156 243 0
-245 -155 0
-245 -244 0
245 155 244 0
-246 -154 0
-246 -245 0
246 154 245 0
-247 5 0
-247 -52 0
247 -5 52 0
-248 -5 0
-248 52 0
248 5 -52 0
-249 -7 0
-249 53 0
249 7 -53 0
-250 7 0
-250 -53 0
250 -7 53 0
-251 -9 0
-251 54 0
251 9 -54 0
-252 9 0
-252 -54 0
252 -9 54 0
-253 -11 0
-253 55 0
253 11 -55 0
-254 11 0
-254 -55 0
254 -11 55 0
-255 -13 0
-255 56 0
255 13 -56 0
-256 13 0
-256 -56 0
256 -13 56 0
-257 -15 0
-257 57 0
257 15 -57 0
-258 15 0
-258 -57 0
258 -15 57 0
-259 -17 0
-259 58 0
259 17 -58 0
-260 17 0
-260 -58 0
260 -17 58 0
-261 -19 0
-261 59 0
261 19 -59 0
-262 19 0
-262 -59 0
262 -19 59 0
-263 -21 0
-263 60 0
263 21 -60 0
-264 21 0
-264 -60 0
264 -21 60 0
-265 -23 0
-265 61 0
265 23 -61 0
-266 23 0
-266 -61 0
266 -23 61 0
-267 -25 0
-267 62 0
267 25 -62 0
-268 25 0
-268 -62 0
268 -25 62 0
-269 -27 0
-269 63 0
269 27 -63 0
-270 27 0
-270 -63 0
270 -27 63 0
-271 -29 0
-271 64 0
271 29 -64 0
-272 29 0
-272 -64 0
272 -29 64 0
-273 -31 0
-273 65 0
273 31 -65 0
-274 31 0
-274 -65 0
274 -31 65 0
-275 -33 0
-275 66 0
275 33 -66 0
-276 33 0
-276 -66 0
276 -33 66 0
-277 -35 0
-277 67 0
277 35 -67 0
-278 35 0
-278 -67 0
278 -35 67 0
-279 -37 0
-279 68 0
279 37 -68 0
-280 37 0
-280 -68 0
280 -37 68 0
-281 -39 0
-281 69 0
281 39 -69 0
-282 39 0
-282 -69 0
282 -39 69 0
-283 -41 0
-283 70 0
283 41 -70 0
-284 41 0
-284 -70 0
284 -41 70 0
-285 -43 0
-285 71 0
285 43 -71 0
-286 43 0
-286 -71 0
286 -43 71 0
-287 -45 0
-287 72 0
287 45 -72 0
-288 45 0
-288 -72 0
288 -45 72 0
-289 -47 0
-289 73 0
289 47 -73 0
-290 47 0
-290 -73 0
290 -47 73 0
-291 -49 0
-291 74 0
291 49 -74 0
-292 49 0
-292 -74 0
292 -49 74 0
-293 -51 0
-293 75 0
293 51 -75 0
-294 -292 0
-294 293 0
294 292 -293 0
-295 -291 0
-295 -294 0
295 291 294 0
-296 -290 0
-296 -295 0
296 290 295 0
-297 -289 0
-297 -296 0
297 289 296 0
-298 -288 0
-298 -297 0
298 288 297 0
-299 -287 0
-299 -298 0
299 287 298 0
-300 -286 0
-300 -299 0
300 286 299 0
-301 -285 0
-301 -300 0
301 285 300 0
-302 -284 0
-302 -301 0
302 284 301 0
-303 -283 0
-303 -302 0
303 283 302 0
-304 -282 0
-304 -303 0
304 282 303 0
-305 -281 0
-305 -304 0
305 281 304 0
-306 -280 0
-306 -305 0
306 280 305 0
-307 -279 0
-307 -306 0
307 279 306 0
-308 -278 0
-308 -307 0
308 278 307 0
-309 -277 0
-309 -308 0
309 277 308 0
-310 -276 0
-310 -309 0
310 276 309 0
-311 -275 0
-311 -310 0
311 275 310 0
-312 -274 0
-312 -311 0
312 274 311 0
-313 -273 0
-313 -312 0
313 273 312 0
-314 -272 0
-314 -313 0
314 272 313 0
-315 -271 0
-315 -314 0
315 271 314 0
-316 -270 0
-316 -315 0
316 270 315 0
-317 -269 0
-317 -316 0
317 269 316 0
-318 -268 0
-318 -317 0
318 268 317 0
-319 -267 0
-319 -318 0
319 267 318 0
-320 -266 0
-320 -319 0
320 266 319 0
-321 -265 0
-321 -320 0
321 265 320 0
-322 -264 0
-322 -321 0
322 264 321 0
-323 -263 0
-323 -322 0
323 263 322 0
-324 -262 0
-324 -323 0
324 262 323 0
-325 -261 0
-325 -324 0
325 261 324 0
-326 -260 0
-326 -325 0
326 260 325 0
-327 -259 0
-327 -326 0
327 259 326 0
-328 -258 0
-328 -327 0
328 258 327 0
-329 -257 0
-329 -328 0
329 257 328 0
-330 -256 0
-330 -329 0
330 256 329 0
-331 -255 0
-331 -330 0
331 255 330 0
-332 -254 0
-332 -331 0
332 254 331 0
-333 -253 0
-333 -332 0
333 253 332 0
-334 -252 0
-334 -333 0
334 252 333 0
-335 -251 0
-335 -334 0
335 251 334 0
-336 -250 0
-336 -335 0
336 250 335 0
-337 -249 0
-337 -336 0
337 249 336 0
-338 -248 0
-338 -337 0
338 248 337 0
-339 -247 0
-339 -338 0
339 247 338 0
-340 246 0
-340 339 0
340 -246 -339 0
-341 -4 0
-341 52 0
341 4 -52 0
-342 4 0
-342 -52 0
342 -4 52 0
-343 6 0
-343 -53 0
343 -6 53 0
-344 -6 0
-344 53 0
344 6 -53 0
-345 8 0
-345 -54 0
345 -8 54 0
-346 -8 0
-346 54 0
346 8 -54 0
-347 10 0
-347 -55 0
347 -10 55 0
-348 -10 0
-348 55 0
348 10 -55 0
-349 12 0
-349 -56 0
349 -12 56 0
-350 -12 0
-350 56 0
350 12 -56 0
-351 14 0
-351 -57 0
351 -14 57 0
-352 -14 0
-352 57 0
352 14 -57 0
-353 16 0
-353 -58 0
353 -16 58 0
-354 -16 0
-354 58 0
354 16 -58 0
-355 18 0
-355 -59 0
355 -18 59 0
-356 -18 0
-356 59 0
356 18 -59 0
-357 20 0
-357 -60 0
357 -20 60 0
-358 -20 0
-358 60 0
358 20 -60 0
-359 22 0
-359 -61 0
359 -22 61 0
-360 -22 0
-360 61 0
360 22 -61 0
-361 24 0
-361 -62 0
361 -24 62 0
-362 -24 0
-362 62 0
362 24 -62 0
-363 26 0
-363 -63 0
363 -26 63 0
-364 -26 0
-364 63 0
364 26 -63 0
-365 28 0
-365 -64 0
365 -28 64 0
-366 -28 0
-366 64 0
366 28 -64 0
-367 30 0
-367 -65 0
367 -30 65 0
-368 -30 0
-368 65 0
368 30 -65 0
-369 32 0
-369 -66 0
369 -32 66 0
-370 -32 0
-370 66 0
370 32 -66 0
-371 34 0
-371 -67 0
371 -34 67 0
-372 -34 0
-372 67 0
372 34 -67 0
-373 36 0
-373 -68 0
373 -36 68 0
-374 -36 0
-374 68 0
374 36 -68 0
-375 38 0
-375 -69 0
375 -38 69 0
-376 -38 0
-376 69 0
376 38 -69 0
-377 40 0
-377 -70 0
377 -40 70 0
-378 -40 0
-378 70 0
378 40 -70 0
-379 42 0
-379 -71 0
379 -42 71 0
-380 -42 0
-380 71 0
380 42 -71 0
-381 44 0
-381 -72 0
381 -44 72 0
-382 -44 0
-382 72 0
382 44 -72 0
-383 46 0
-383 -73 0
383 -46 73 0
-384 -46 0
-384 73 0
384 46 -73 0
-385 48 0
-385 -74 0
385 -48 74 0
-386 -48 0
-386 74 0
386 48 -74 0
-387 50 0
-387 -75 0
387 -50 75 0
-388 -386 0
-388 387 0
388 386 -387 0
-389 -385 0
-389 -388 0
389 385 388 0
-390 -384 0
-390 -389 0
390 384 389 0
-391 -383 0
-391 -390 0
391 383 390 0
-392 -382 0
-392 -391 0
392 382 391 0
-393 -381 0
-393 -392 0
393 381 392 0
-394 -380 0
-394 -393 0
394 380 393 0
-395 -379 0
-395 -394 0
395 379 394 0
-396 -378 0
-396 -395 0
396 378 395 0
-397 -377 0
-397 -396 0
397 377 396 0
-398 -376 0
-398 -397 0
398 376 397 0
-399 -375 0
-399 -398 0
399 375 398 0
-400 -374 0
-400 -399 0
400 374 399 0
-401 -373 0
-401 -400 0
401 373 400 0
-402 -372 0
-402 -401 0
402 372 401 0
-403 -371 0
-403 -402 0
403 371 402 0
-404 -370 0
-404 -403 0
404 370 403 0
-405 -369 0
-405 -404 0
405 369 404 0
-406 -368 0
-406 -405 0
406 368 405 0
-407 -367 0
-407 -406 0
407 367 406 0
-408 -366 0
-408 -407 0
408 366 407 0
-409 -365 0
-409 -408 0
409 365 408 0
-410 -364 0
-410 -409 0
410 364 409 0
-411 -363 0
-411 -410 0
411 363 410 0
-412 -362 0
-412 -411 0
412 362 411 0
-413 -361 0
-413 -412 0
413 361 412 0
-414 -360 0
-414 -413 0
414 360 413 0
-415 -359 0
-415 -414 0
415 359 414 0
-416 -358 0
-416 -415 0
416 358 415 0
-417 -357 0
-417 -416 0
417 357 416 0
-418 -356 0
-418 -417 0
418 356 417 0
-419 -355 0
-419 -418 0
419 355 418 0
-420 -354 0
-420 -419 0
420 354 419 0
-421 -353 0
-421 -420 0
421 353 420 0
-422 -352 0
-422 -421 0
422 352 421 0
-423 -351 0
-423 -422 0
423 351 422 0
-424 -350 0
-424 -423 0
424 350 423 0
-425 -349 0
-425 -424 0
425 349 424 0
-426 -348 0
-426 -425 0
426 348 425 0
-427 -347 0
-427 -426 0
427 347 426 0
-428 -346 0
-428 -427 0
428 346 427 0
-429 -345 0
-429 -428 0
429 345 428 0
-430 -344 0
-430 -429 0
430 344 429 0
-431 -343 0
-431 -430 0
431 343 430 0
-432 -342 0
-432 -431 0
432 342 431 0
-433 -341 0
-433 -432 0
433 341 432 0
-434 -339 0
-434 433 0
434 339 -433 0
-435 -246 0
-435 -433 0
435 246 433 0
-436 339 -433 0
-436 -339 -246 0
436 339 433 0
436 -339 246 0
-437 435 0
-437 436 0
437 -435 -436 0
-438 4 0
-438 437 0
438 -4 -437 0
-439 434 438 0
-439 -434 52 0
439 434 -438 0
439 -434 -52 0
-440 340 439 0
-440 -340 5 0
440 340 -439 0
440 -340 -5 0
-441 -76 0
-441 77 0
441 76 -77 0
-442 76 0
-442 -77 0
442 -76 77 0
-443 78 0
-443 -79 0
443 -78 79 0
-444 -78 0
-444 79 0
444 78 -79 0
-445 80 0
-445 -81 0
445 -80 81 0
-446 -80 0
-446 81 0
446 80 -81 0
-447 82 0
-447 -83 0
447 -82 83 0
-448 -82 0
-448 83 0
448 82 -83 0
-449 84 0
-449 -85 0
449 -84 85 0
-450 -84 0
-450 85 0
450 84 -85 0
-451 86 0
-451 -87 0
451 -86 87 0
-452 -86 0
-452 87 0
452 86 -87 0
-453 88 0
-453 -89 0
453 -88 89 0
-454 -88 0
-454 89 0
454 88 -89 0
-455 90 0
-455 -91 0
455 -90 91 0
-456 -90 0
-456 91 0
456 90 -91 0
-457 92 0
-457 -93 0
457 -92 93 0
-458 -92 0
-458 93 0
458 92 -93 0
-459 94 0
-459 -95 0
459 -94 95 0
-460 -94 0
-460 95 0
460 94 -95 0
-461 96 0
-461 -97 0
461 -96 97 0
-462 -96 0
-462 97 0
462 96 -97 0
-463 98 0
-463 -99 0
463 -98 99 0
-464 -98 0
-464 99 0
464 98 -99 0
-465 100 0
-465 -101 0
465 -100 101 0
-466 -100 0
-466 101 0
466 100 -101 0
-467 102 0
-467 -103 0
467 -102 103 0
-468 -102 0
-468 103 0
468 102 -103 0
-469 104 0
-469 -105 0
469 -104 105 0
-470 -104 0
-470 105 0
470 104 -105 0
-471 106 0
-471 -107 0
471 -106 107 0
-472 -106 0
-472 107 0
472 106 -107 0
-473 108 0
-473 -109 0
473 -108 109 0
-474 -108 0
-474 109 0
474 108 -109 0
-475 110 0
-475 -111 0
475 -110 111 0
-476 -110 0
-476 111 0
476 110 -111 0
-477 112 0
-477 -113 0
477 -112 113 0
-478 -112 0
-478 113 0
478 112 -113 0
-479 114 0
-479 -115 0
479 -114 115 0
-480 -114 0
-480 115 0
480 114 -115 0
-481 116 0
-481 -117 0
481 -116 117 0
-482 -116 0
-482 117 0
482 116 -117 0
-483 118 0
-483 -119 0
483 -118 119 0
-484 -118 0
-484 119 0
484 118 -119 0
-485 120 0
-485 -121 0
485 -120 121 0
-486 -120 0
-486 121 0
486 120 -121 0
-487 122 0
-487 -123 0
487 -122 123 0
-488 -486 0
-488 487 0
488 486 -487 0
-489 -485 0
-489 -488 0
489 485 488 0
-490 -484 0
-490 -489 0
490 484 489 0
-491 -483 0
-491 -490 0
491 483 490 0
-492 -482 0
-492 -491 0
492 482 491 0
-493 -481 0
-493 -492 0
493 481 492 0
-494 -480 0
-494 -493 0
494 480 493 0
-495 -479 0
-495 -494 0
495 479 494 0
-496 -478 0
-496 -495 0
496 478 495 0
-497 -477 0
-497 -496 0
497 477 496 0
-498 -476 0
-498 -497 0
498 476 497 0
-499 -475 0
-499 -498 0
499 475 498 0
-500 -474 0
-500 -499 0
500 474 499 0
-501 -473 0
-501 -500 0
501 473 500 0
-502 -472 0
-502 -501 0
502 472 501 0
-503 -471 0
-503 -502 0
503 471 502 0
-504 -470 0
-504 -503 0
504 470 503 0
-505 -469 0
-505 -504 0
505 469 504 0
-506 -468 0
-506 -505 0
506 468 505 0
-507 -467 0
-507 -506 0
507 467 506 0
-508 -466 0
-508 -507 0
508 466 507 0
-509 -465 0
-509 -508 0
509 465 508 0
-510 -464 0
-510 -509 0
510 464 509 0
-511 -463 0
-511 -510 0
511 463 510 0
-512 -462 0
-512 -511 0
512 462 511 0
-513 -461 0
-513 -512 0
513 461 512 0
-514 -460 0
-514 -513 0
514 460 513 0
-515 -459 0
-515 -514 0
515 459 514 0
-516 -458 0
-516 -515 0
516 458 515 0
-517 -457 0
-517 -516 0
517 457 516 0
-518 -456 0
-518 -517 0
518 456 517 0
-519 -455 0
-519 -518 0
519 455 518 0
-520 -454 0
-520 -519 0
520 454 519 0
-521 -453 0
-521 -520 0
521 453 520 0
-522 -452 0
-522 -521 0
522 452 521 0
-523 -451 0
-523 -522 0
523 451 522 0
-524 -450 0
-524 -523 0
524 450 523 0
-525 -449 0
-525 -524 0
525 449 524 0
-526 -448 0
-526 -525 0
526 448 525 0
-527 -447 0
-527 -526 0
527 447 526 0
-528 -446 0
-528 -527 0
528 446 527 0
-529 -445 0
-529 -528 0
529 445 528 0
-530 -444 0
-530 -529 0
530 444 529 0
-531 -443 0
-531 -530 0
531 443 530 0
-532 -442 0
-532 -531 0
532 442 531 0
-533 -441 0
-533 -532 0
533 441 532 0
-534 77 0
-534 -124 0
534 -77 124 0
-535 -77 0
-535 124 0
535 77 -124 0
-536 -79 0
-536 125 0
536 79 -125 0
-537 79 0
-537 -125 0
537 -79 125 0
-538 -81 0
-538 126 0
538 81 -126 0
-539 81 0
-539 -126 0
539 -81 126 0
-540 -83 0
-540 127 0
540 83 -127 0
-541 83 0
-541 -127 0
541 -83 127 0
-542 -85 0
-542 128 0
542 85 -128 0
-543 85 0
-543 -128 0
543 -85 128 0
-544 -87 0
-544 129 0
544 87 -129 0
-545 87 0
-545 -129 0
545 -87 129 0
-546 -89 0
-546 130 0
546 89 -130 0
-547 89 0
-547 -130 0
547 -89 130 0
-548 -91 0
-548 131 0
548 91 -131 0
-549 91 0
-549 -131 0
549 -91 131 0
-550 -93 0
-550 132 0
550 93 -132 0
-551 93 0
-551 -132 0
551 -93 132 0
-552 -95 0
-552 133 0
552 95 -133 0
-553 95 0
-553 -133 0
553 -95 133 0
-554 -97 0
-554 134 0
554 97 -134 0
-555 97 0
-555 -134 0
555 -97 134 0
-556 -99 0
-556 135 0
556 99 -135 0
-557 99 0
-557 -135 0
557 -99 135 0
-558 -101 0
-558 136 0
558 101 -136 0
-559 101 0
-559 -136 0
559 -101 136 0
-560 -103 0
-560 137 0
560 103 -137 0
-561 103 0
-561 -137 0
561 -103 137 0
-562 -105 0
-562 138 0
562 105 -138 0
-563 105 0
-563 -138 0
563 -105 138 0
-564 -107 0
-564 139 0
564 107 -139 0
-565 107 0
-565 -139 0
565 -107 139 0
-566 -109 0
-566 140 0
566 109 -140 0
-567 109 0
-567 -140 0
567 -109 140 0
-568 -111 0
-568 141 0
568 111 -141 0
-569 111 0
-569 -141 0
569 -111 141 0
-570 -113 0
-570 142 0
570 113 -142 0
-571 113 0
-571 -142 0
571 -113 142 0
-572 -115 0
-572 143 0
572 115 -143 0
-573 115 0
-573 -143 0
573 -115 143 0
-574 -117 0
-574 144 0
574 117 -144 0
-575 117 0
-575 -144 0
575 -117 144 0
-576 -119 0
-576 145 0
576 119 -145 0
-577 119 0
-577 -145 0
577 -119 145 0
-578 -121 0
-578 146 0
578 121 -146 0
-579 121 0
-579 -146 0
579 -121 146 0
-580 -123 0
-580 147 0
580 123 -147 0
-581 -579 0
-581 580 0
581 579 -580 0
-582 -578 0
-582 -581 0
582 578 581 0
-583 -577 0
-583 -582 0
583 577 582 0
-584 -576 0
-584 -583 0
584 576 583 0
-585 -575 0
-585 -584 0
585 575 584 0
-586 -574 0
-586 -585 0
586 574 585 0
-587 -573 0
-587 -586 0
587 573 586 0
-588 -572 0
-588 -587 0
588 572 587 0
-589 -571 0
-589 -588 0
589 571 588 0
-590 -570 0
-590 -589 0
590 570 589 0
-591 -569 0
-591 -590 0
591 569 590 0
-592 -568 0
-592 -591 0
592 568 591 0
-593 -567 0
-593 -592 0
593 567 592 0
-594 -566 0
-594 -593 0
594 566 593 0
-595 -565 0
-595 -594 0
595 565 594 0
-596 -564 0
-596 -595 0
596 564 595 0
-597 -563 0
-597 -596 0
597 563 596 0
-598 -562 0
-598 -597 0
598 562 597 0
-599 -561 0
-599 -598 0
599 561 598 0
-600 -560 0
-600 -599 0
600 560 599 0
-601 -559 0
-601 -600 0
601 559 600 0
-602 -558 0
-602 -601 0
602 558 601 0
-603 -557 0
-603 -602 0
603 557 602 0
-604 -556 0
-604 -603 0
604 556 603 0
-605 -555 0
-605 -604 0
605 555 604 0
-606 -554 0
-606 -605 0
606 554 605 0
-607 -553 0
-607 -606 0
607 553 606 0
-608 -552 0
-608 -607 0
608 552 607 0
-609 -551 0
-609 -608 0
609 551 608 0
-610 -550 0
-610 -609 0
610 550 609 0
-611 -549 0
-611 -610 0
611 549 610 0
-612 -548 0
-612 -611 0
612 548 611 0
-613 -547 0
-613 -612 0
613 547 612 0
-614 -546 0
-614 -613 0
614 546 613 0
-615 -545 0
-615 -614 0
615 545 614 0
-616 -544 0
-616 -615 0
616 544 615 0
-617 -543 0
-617 -616 0
617 543 616 0
-618 -542 0
-618 -617 0
618 542 617 0
-619 -541 0
-619 -618 0
619 541 618 0
-620 -540 0
-620 -619 0
620 540 619 0
-621 -539 0
-621 -620 0
621 539 620 0
-622 -538 0
-622 -621 0
622 538 621 0
-623 -537 0
-623 -622 0
623 537 622 0
-624 -536 0
-624 -623 0
624 536 623 0
-625 -535 0
-625 -624 0
625 535 624 0
-626 -534 0
-626 -625 0
626 534 625 0
-627 533 0
-627 626 0
627 -533 -626 0
-628 -76 0
-628 124 0
628 76 -124 0
-629 76 0
-629 -124 0
629 -76 124 0
-630 78 0
-630 -125 0
630 -78 125 0
-631 -78 0
-631 125 0
631 78 -125 0
-632 80 0
-632 -126 0
632 -80 126 0
-633 -80 0
-633 126 0
633 80 -126 0
-634 82 0
-634 -127 0
634 -82 127 0
-635 -82 0
-635 127 0
635 82 -127 0
-636 84 0
-636 -128 0
636 -84 128 0
-637 -84 0
-637 128 0
637 84 -128 0
-638 86 0
-638 -129 0
638 -86 129 0
-639 -86 0
-639 129 0
639 86 -129 0
-640 88 0
-640 -130 0
640 -88 130 0
-641 -88 0
-641 130 0
641 88 -130 0
-642 90 0
-642 -131 0
642 -90 131 0
-643 -90 0
-643 131 0
643 90 -131 0
-644 92 0
-644 -132 0
644 -92 132 0
-645 -92 0
-645 132 0
645 92 -132 0
-646 94 0
-646 -133 0
646 -94 133 0
-647 -94 0
-647 133 0
647 94 -133 0
-648 96 0
-648 -134 0
648 -96 134 0
-649 -96 0
-649 134 0
649 96 -134 0
-650 98 0
-650 -135 0
650 -98 135 0
-651 -98 0
-651 135 0
651 98 -135 0
-652 100 0
-652 -136 0
652 -100 136 0
-653 -100 0
-653 136 0
653 100 -136 0
-654 102 0
-654 -137 0
654 -102 137 0
-655 -102 0
-655 137 0
655 102 -137 0
-656 104 0
-656 -138 0
656 -104 138 0
-657 -104 0
-657 138 0
657 104 -138 0
-658 106 0
-658 -139 0
658 -106 139 0
-659 -106 0
-659 139 0
659 106 -139 0
-660 108 0
-660 -140 0
660 -108 140 0
-661 -108 0
-661 140 0
661 108 -140 0
-662 110 0
-662 -141 0
662 -110 141 0
-663 -110 0
-663 141 0
663 110 -141 0
-664 112 0
-664 -142 0
664 -112 142 0
-665 -112 0
-665 142 0
665 112 -142 0
-666 114 0
-666 -143 0
666 -114 143 0
-667 -114 0
-667 143 0
667 114 -143 0
-668 116 0
-668 -144 0
668 -116 144 0
-669 -116 0
-669 144 0
669 116 -144 0
-670 118 0
-670 -145 0
670 -118 145 0
-671 -118 0
-671 145 0
671 118 -145 0
-672 120 0
-672 -146 0
672 -120 146 0
-673 -120 0
-673 146 0
673 120 -146 0
-674 122 0
-674 -147 0
674 -122 147 0
-675 -673 0
-675 674 0
675 673 -674 0
-676 -672 0
-676 -675 0
676 672 675 0
-677 -671 0
-677 -676 0
677 671 676 0
-678 -670 0
-678 -677 0
678 670 677 0
-679 -669 0
-679 -678 0
679 669 678 0
-680 -668 0
-680 -679 0
680 668 679 0
-681 -667 0
-681 -680 0
681 667 680 0
-682 -666 0
-682 -681 0
682 666 681 0
-683 -665 0
-683 -682 0
683 665 682 0
-684 -664 0
-684 -683 0
684 664 683 0
-685 -663 0
-685 -684 0
685 663 684 0
-686 -662 0
-686 -685 0
686 662 685 0
-687 -661 0
-687 -686 0
687 661 686 0
-688 -660 0
-688 -687 0
688 660 687 0
-689 -659 0
-689 -688 0
689 659 688 0
-690 -658 0
-690 -689 0
690 658 689 0
-691 -657 0
-691 -690 0
691 657 690 0
-692 -656 0
-692 -691 0
692 656 691 0
-693 -655 0
-693 -692 0
693 655 692 0
-694 -654 0
-694 -693 0
694 654 693 0
-695 -653 0
-695 -694 0
695 653 694 0
-696 -652 0
-696 -695 0
696 652 695 0
-697 -651 0
-697 -696 0
697 651 696 0
-698 -650 0
-698 -697 0
698 650 697 0
-699 -649 0
-699 -698 0
699 649 698 0
-700 -648 0
-700 -699 0
700 648 699 0
-701 -647 0
-701 -700 0
701 647 700 0
-702 -646 0
-702 -701 0
702 646 701 0
-703 -645 0
-703 -702 0
703 645 702 0
-704 -644 0
-704 -703 0
704 644 703 0
-705 -643 0
-705 -704 0
705 643 704 0
-706 -642 0
-706 -705 0
706 642 705 0
-707 -641 0
-707 -706 0
707 641 706 0
-708 -640 0
-708 -707 0
708 640 707 0
-709 -639 0
-709 -708 0
709 639 708 0
-710 -638 0
-710 -709 0
710 638 709 0
-711 -637 0
-711 -710 0
711 637 710 0
-712 -636 0
-712 -711 0
712 636 711 0
-713 -635 0
-713 -712 0
713 635 712 0
-714 -634 0
-714 -713 0
714 634 713 0
-715 -633 0
-715 -714 0
715 633 714 0
-716 -632 0
-716 -715 0
716 632 715 0
-717 -631 0
-717 -716 0
717 631 716 0
-718 -630 0
-718 -717 0
718 630 717 0
-719 -629 0
-719 -718 0
719 629 718 0
-720 -628 0
-720 -719 0
720 628 719 0
-721 -626 0
-721 720 0
721 626 -720 0
-722 -533 0
-722 -720 0
722 533 720 0
-723 626 -720 0
-723 -626 -533 0
723 626 720 0
723 -626 533 0
-724 722 0
-724 723 0
724 -722 -723 0
-725 76 0
-725 724 0
725 -76 -724 0
-726 721 725 0
-726 -721 124 0
726 721 -725 0
726 -721 -124 0
-727 627 726 0
-727 -627 77 0
727 627 -726 0
727 -627 -77 0
-728 -246 0
-728 -339 0
728 246 339 0
-729 339 0
-729 -433 0
729 -339 433 0
-730 246 0
-730 433 0
730 -246 -433 0
-731 -339 433 0
-731 339 246 0
731 -339 -433 0
731 339 -246 0
-732 730 0
-732 731 0
732 -730 -731 0
-733 48 0
-733 732 0
733 -48 -732 0
-734 729 733 0
-734 -729 74 0
734 729 -733 0
734 -729 -74 0
-735 728 734 0
-735 -728 49 0
735 728 -734 0
735 -728 -49 0
-736 50 0
-736 732 0
736 -50 -732 0
-737 729 736 0
-737 -729 75 0
737 729 -736 0
737 -729 -75 0
-738 728 737 0
-738 -728 51 0
738 728 -737 0
738 -728 -51 0
-739 -735 0
-739 -738 0
739 735 738 0
-740 46 0
-740 732 0
740 -46 -732 0
-741 729 740 0
-741 -729 73 0
741 729 -740 0
741 -729 -73 0
-742 728 741 0
-742 -728 47 0
742 728 -741 0
742 -728 -47 0
-743 739 0
-743 -742 0
743 -739 742 0
-744 44 0
-744 732 0
744 -44 -732 0
-745 729 744 0
-745 -729 72 0
745 729 -744 0
745 -729 -72 0
-746 728 745 0
-746 -728 45 0
746 728 -745 0
746 -728 -45 0
-747 743 0
-747 -746 0
747 -743 746 0
-748 42 0
-748 732 0
748 -42 -732 0
-749 729 748 0
-749 -729 71 0
749 729 -748 0
749 -729 -71 0
-750 728 749 0
-750 -728 43 0
750 728 -749 0
750 -728 -43 0
-751 747 0
-751 -750 0
751 -747 750 0
-752 40 0
-752 732 0
752 -40 -732 0
-753 729 752 0
-753 -729 70 0
753 729 -752 0
753 -729 -70 0
-754 728 753 0
-754 -728 41 0
754 728 -753 0
754 -728 -41 0
-755 751 0
-755 -754 0
755 -751 754 0
-756 38 0
-756 732 0
756 -38 -732 0
-757 729 756 0
-757 -729 69 0
757 729 -756 0
757 -729 -69 0
-758 728 757 0
-758 -728 39 0
758 728 -757 0
758 -728 -39 0
-759 755 0
-759 -758 0
759 -755 758 0
-760 36 0
-760 732 0
760 -36 -732 0
-761 729 760 0
-761 -729 68 0
761 729 -760 0
761 -729 -68 0
-762 728 761 0
-762 -728 37 0
762 728 -761 0
762 -728 -37 0
-763 759 0
-763 -762 0
763 -759 762 0
-764 34 0
-764 732 0
764 -34 -732 0
-765 729 764 0
-765 -729 67 0
765 729 -764 0
765 -729 -67 0
-766 728 765 0
-766 -728 35 0
766 728 -765 0
766 -728 -35 0
-767 763 0
-767 -766 0
767 -763 766 0
-768 32 0
-768 732 0
768 -32 -732 0
-769 729 768 0
-769 -729 66 0
769 729 -768 0
769 -729 -66 0
-770 728 769 0
-770 -728 33 0
770 728 -769 0
770 -728 -33 0
-771 767 0
-771 -770 0
771 -767 770 0
-772 30 0
-772 732 0
772 -30 -732 0
-773 729 772 0
-773 -729 65 0
773 729 -772 0
773 -729 -65 0
-774 728 773 0
-774 -728 31 0
774 728 -773 0
774 -728 -31 0
-775 771 0
-775 -774 0
775 -771 774 0
-776 28 0
-776 732 0
776 -28 -732 0
-777 729 776 0
-777 -729 64 0
777 729 -776 0
777 -729 -64 0
-778 728 777 0
-778 -728 29 0
778 728 -777 0
778 -728 -29 0
-779 775 0
-779 -778 0
779 -775 778 0
-780 26 0
-780 732 0
780 -26 -732 0
-781 729 780 0
-781 -729 63 0
781 729 -780 0
781 -729 -63 0
-782 728 781 0
-782 -728 27 0
782 728 -781 0
782 -728 -27 0
-783 779 0
-783 -782 0
783 -779 782 0
-784 24 0
-784 732 0
784 -24 -732 0
-785 729 784 0
-785 -729 62 0
785 729 -784 0
785 -729 -62 0
-786 728 785 0
-786 -728 25 0
786 728 -785 0
786 -728 -25 0
-787 783 0
-787 -786 0
787 -783 786 0
-788 22 0
-788 732 0
788 -22 -732 0
-789 729 788 0
-789 -729 61 0
789 729 -788 0
789 -729 -61 0
-790 728 789 0
-790 -728 23 0
790 728 -789 0
790 -728 -23 0
-791 787 0
-791 -790 0
791 -787 790 0
-792 20 0
-792 732 0
792 -20 -732 0
-793 729 792 0
-793 -729 60 0
793 729 -792 0
793 -729 -60 0
-794 728 793 0
-794 -728 21 0
794 728 -793 0
794 -728 -21 0
-795 791 0
-795 -794 0
795 -791 794 0
-796 18 0
-796 732 0
796 -18 -732 0
-797 729 796 0
-797 -729 59 0
797 729 -796 0
797 -729 -59 0
-798 728 797 0
-798 -728 19 0
798 728 -797 0
798 -728 -19 0
-799 795 0
-799 -798 0
799 -795 798 0
-800 16 0
-800 732 0
800 -16 -732 0
-801 729 800 0
-801 -729 58 0
801 729 -800 0
801 -729 -58 0
-802 728 801 0
-802 -728 17 0
802 728 -801 0
802 -728 -17 0
-803 799 0
-803 -802 0
803 -799 802 0
-804 14 0
-804 732 0
804 -14 -732 0
-805 729 804 0
-805 -729 57 0
805 729 -804 0
805 -729 -57 0
-806 728 805 0
-806 -728 15 0
806 728 -805 0
806 -728 -15 0
-807 803 0
-807 -806 0
807 -803 806 0
-808 12 0
-808 732 0
808 -12 -732 0
-809 729 808 0
-809 -729 56 0
809 729 -808 0
809 -729 -56 0
-810 728 809 0
-810 -728 13 0
810 728 -809 0
810 -728 -13 0
-811 -807 0
-811 810 0
811 807 -810 0
-812 10 0
-812 732 0
812 -10 -732 0
-813 729 812 0
-813 -729 55 0
813 729 -812 0
813 -729 -55 0
-814 728 813 0
-814 -728 11 0
814 728 -813 0
814 -728 -11 0
-815 -811 0
-815 -814 0
815 811 814 0
-816 8 0
-816 732 0
816 -8 -732 0
-817 729 816 0
-817 -729 54 0
817 729 -816 0
817 -729 -54 0
-818 728 817 0
-818 -728 9 0
818 728 -817 0
818 -728 -9 0
-819 815 0
-819 -818 0
819 -815 818 0
-820 6 0
-820 732 0
820 -6 -732 0
-821 729 820 0
-821 -729 53 0
821 729 -820 0
821 -729 -53 0
-822 728 821 0
-822 -728 7 0
822 728 -821 0
822 -728 -7 0
-823 819 0
-823 -822 0
823 -819 822 0
-824 4 0
-824 732 0
824 -4 -732 0
-825 729 824 0
-825 -729 52 0
825 729 -824 0
825 -729 -52 0
-826 728 825 0
-826 -728 5 0
826 728 -825 0
826 -728 -5 0
-827 -823 0
-827 -826 0
827 823 826 0
-828 -533 0
-828 -626 0
828 533 626 0
-829 626 0
-829 -720 0
829 -626 720 0
-830 533 0
-830 720 0
830 -533 -720 0
-831 -626 720 0
-831 626 533 0
831 -626 -720 0
831 626 -533 0
-832 830 0
-832 831 0
832 -830 -831 0
-833 120 0
-833 832 0
833 -120 -832 0
-834 829 833 0
-834 -829 146 0
834 829 -833 0
834 -829 -146 0
-835 828 834 0
-835 -828 121 0
835 828 -834 0
835 -828 -121 0
-836 122 0
-836 832 0
836 -122 -832 0
-837 829 836 0
-837 -829 147 0
837 829 -836 0
837 -829 -147 0
-838 828 837 0
-838 -828 123 0
838 828 -837 0
838 -828 -123 0
-839 -835 0
-839 -838 0
839 835 838 0
-840 118 0
-840 832 0
840 -118 -832 0
-841 829 840 0
-841 -829 145 0
841 829 -840 0
841 -829 -145 0
-842 828 841 0
-842 -828 119 0
842 828 -841 0
842 -828 -119 0
-843 839 0
-843 -842 0
843 -839 842 0
-844 116 0
-844 832 0
844 -116 -832 0
-845 829 844 0
-845 -829 144 0
845 829 -844 0
845 -829 -144 0
-846 828 845 0
-846 -828 117 0
846 828 -845 0
846 -828 -117 0
-847 843 0
-847 -846 0
847 -843 846 0
-848 114 0
-848 832 0
848 -114 -832 0
-849 829 848 0
-849 -829 143 0
849 829 -848 0
849 -829 -143 0
-850 828 849 0
-850 -828 115 0
850 828 -849 0
850 -828 -115 0
-851 847 0
-851 -850 0
851 -847 850 0
-852 112 0
-852 832 0
852 -112 -832 0
-853 829 852 0
-853 -829 142 0
853 829 -852 0
853 -829 -142 0
-854 828 853 0
-854 -828 113 0
854 828 -853 0
854 -828 -113 0
-855 851 0
-855 -854 0
855 -851 854 0
-856 110 0
-856 832 0
856 -110 -832 0
-857 829 856 0
-857 -829 141 0
857 829 -856 0
857 -829 -141 0
-858 828 857 0
-858 -828 111 0
858 828 -857 0
858 -828 -111 0
-859 855 0
-859 -858 0
859 -855 858 0
-860 108 0
-860 832 0
860 -108 -832 0
-861 829 860 0
-861 -829 140 0
861 829 -860 0
861 -829 -140 0
-862 828 861 0
-862 -828 109 0
862 828 -861 0
862 -828 -109 0
-863 859 0
-863 -862 0
863 -859 862 0
-864 106 0
-864 832 0
864 -106 -832 0
-865 829 864 0
-865 -829 139 0
865 829 -864 0
865 -829 -139 0
-866 828 865 0
-866 -828 107 0
866 828 -865 0
866 -828 -107 0
-867 863 0
-867 -866 0
867 -863 866 0
-868 104 0
-868 832 0
868 -104 -832 0
-869 829 868 0
-869 -829 138 0
869 829 -868 0
869 -829 -138 0
-870 828 869 0
-870 -828 105 0
870 828 -869 0
870 -828 -105 0
-871 867 0
-871 -870 0
871 -867 870 0
-872 102 0
-872 832 0
872 -102 -832 0
-873 829 872 0
-873 -829 137 0
873 829 -872 0
873 -829 -137 0
-874 828 873 0
-874 -828 103 0
874 828 -873 0
874 -828 -103 0
-875 871 0
-875 -874 0
875 -871 874 0
-876 100 0
-876 832 0
876 -100 -832 0
-877 829 876 0
-877 -829 136 0
877 829 -876 0
877 -829 -136 0
-878 828 877 0
-878 -828 101 0
878 828 -877 0
878 -828 -101 0
-879 875 0
-879 -878 0
879 -875 878 0
-880 98 0
-880 832 0
880 -98 -832 0
-881 829 880 0
-881 -829 135 0
881 829 -880 0
881 -829 -135 0
-882 828 881 0
-882 -828 99 0
882 828 -881 0
882 -828 -99 0
-883 879 0
-883 -882 0
883 -879 882 0
-884 96 0
-884 832 0
884 -96 -832 0
-885 829 884 0
-885 -829 134 0
885 829 -884 0
885 -829 -134 0
-886 828 885 0
-886 -828 97 0
886 828 -885 0
886 -828 -97 0
-887 883 0
-887 -886 0
887 -883 886 0
-888 94 0
-888 832 0
888 -94 -832 0
-889 829 888 0
-889 -829 133 0
889 829 -888 0
889 -829 -133 0
-890 828 889 0
-890 -828 95 0
890 828 -889 0
890 -828 -95 0
-891 887 0
-891 -890 0
891 -887 890 0
-892 92 0
-892 832 0
892 -92 -832 0
-893 829 892 0
-893 -829 132 0
893 829 -892 0
893 -829 -132 0
-894 828 893 0
-894 -828 93 0
894 828 -893 0
894 -828 -93 0
-895 891 0
-895 -894 0
895 -891 894 0
-896 90 0
-896 832 0
896 -90 -832 0
-897 829 896 0
-897 -829 131 0
897 829 -896 0
897 -829 -131 0
-898 828 897 0
-898 -828 91 0
898 828 -897 0
898 -828 -91 0
-899 895 0
-899 -898 0
899 -895 898 0
-900 88 0
-900 832 0
900 -88 -832 0
-901 829 900 0
-901 -829 130 0
901 829 -900 0
901 -829 -130 0
-902 828 901 0
-902 -828 89 0
902 828 -901 0
902 -828 -89 0
-903 899 0
-903 -902 0
903 -899 902 0
-904 86 0
-904 832 0
904 -86 -832 0
-905 829 904 0
-905 -829 129 0
905 829 -904 0
905 -829 -129 0
-906 828 905 0
-906 -828 87 0
906 828 -905 0
906 -828 -87 0
-907 903 0
-907 -906 0
907 -903 906 0
-908 84 0
-908 832 0
908 -84 -832 0
-909 829 908 0
-909 -829 128 0
909 829 -908 0
909 -829 -128 0
-910 828 909 0
-910 -828 85 0
910 828 -909 0
910 -828 -85 0
-911 -907 0
-911 910 0
911 907 -910 0
-912 82 0
-912 832 0
912 -82 -832 0
-913 829 912 0
-913 -829 127 0
913 829 -912 0
913 -829 -127 0
-914 828 913 0
-914 -828 83 0
914 828 -913 0
914 -828 -83 0
-915 -911 0
-915 -914 0
915 911 914 0
-916 80 0
-916 832 0
916 -80 -832 0
-917 829 916 0
-917 -829 126 0
917 829 -916 0
917 -829 -126 0
-918 828 917 0
-918 -828 81 0
918 828 -917 0
918 -828 -81 0
-919 915 0
-919 -918 0
919 -915 918 0
-920 78 0
-920 832 0
920 -78 -832 0
-921 829 920 0
-921 -829 125 0
921 829 -920 0
921 -829 -125 0
-922 828 921 0
-922 -828 79 0
922 828 -921 0
922 -828 -79 0
-923 919 0
-923 -922 0
923 -919 922 0
-924 76 0
-924 832 0
924 -76 -832 0
-925 829 924 0
-925 -829 124 0
925 829 -924 0
925 -829 -124 0
-926 828 925 0
-926 -828 77 0
926 828 -925 0
926 -828 -77 0
-927 -923 0
-927 -926 0
927 923 926 0
-928 -827 0
-928 -927 0
928 827 927 0
-929 -727 0
-929 928 0
929 727 -928 0
-930 -440 0
-930 929 0
930 440 -929 0
-931 -5 0
-931 -52 0
931 5 52 0
-932 -4 0
-932 931 0
932 4 -931 0
-933 -77 0
-933 -124 0
933 77 124 0
-934 -76 0
-934 933 0
934 76 -933 0
-935 -48 0
-935 -50 0
935 48 50 0
-936 -46 0
-936 935 0
936 46 -935 0
-937 -44 0
-937 936 0
937 44 -936 0
-938 -42 0
-938 937 0
938 42 -937 0
-939 -40 0
-939 938 0
939 40 -938 0
-940 -38 0
-940 939 0
940 38 -939 0
-941 -36 0
-941 940 0
941 36 -940 0
-942 -34 0
-942 941 0
942 34 -941 0
-943 -32 0
-943 942 0
943 32 -942 0
-944 -30 0
-944 943 0
944 30 -943 0
-945 -28 0
-945 944 0
945 28 -944 0
-946 -26 0
-946 945 0
946 26 -945 0
-947 -24 0
-947 946 0
947 24 -946 0
-948 -22 0
-948 947 0
948 22 -947 0
-949 -20 0
-949 948 0
949 20 -948 0
-950 -18 0
-950 949 0
950 18 -949 0
-951 -16 0
-951 950 0
951 16 -950 0
-952 -14 0
-952 951 0
952 14 -951 0
-953 12 0
-953 -952 0
953 -12 952 0
-954 -10 0
-954 -953 0
954 10 953 0
-955 -8 0
-955 954 0
955 8 -954 0
-956 -6 0
-956 955 0
956 6 -955 0
-957 -4 0
-957 -956 0
957 4 956 0
-958 -74 0
-958 -75 0
958 74 75 0
-959 -73 0
-959 958 0
959 73 -958 0
-960 -72 0
-960 959 0
960 72 -959 0
-961 -71 0
-961 960 0
961 71 -960 0
-962 -70 0
-962 961 0
962 70 -961 0
-963 -69 0
-963 962 0
963 69 -962 0
-964 -68 0
-964 963 0
964 68 -963 0
-965 -67 0
-965 964 0
965 67 -964 0
-966 -66 0
-966 965 0
966 66 -965 0
-967 -65 0
-967 966 0
967 65 -966 0
-968 -64 0
-968 967 0
968 64 -967 0
-969 -63 0
-969 968 0
969 63 -968 0
-970 -62 0
-970 969 0
970 62 -969 0
-971 -61 0
-971 970 0
971 61 -970 0
-972 -60 0
-972 971 0
972 60 -971 0
-973 -59 0
-973 972 0
973 59 -972 0
-974 -58 0
-974 973 0
974 58 -973 0
-975 -57 0
-975 974 0
975 57 -974 0
-976 56 0
-976 -975 0
976 -56 975 0
-977 -55 0
-977 -976 0
977 55 976 0
-978 -54 0
-978 977 0
978 54 -977 0
-979 -53 0
-979 978 0
979 53 -978 0
-980 -52 0
-980 -979 0
980 52 979 0
-981 -49 0
-981 -51 0
981 49 51 0
-982 -47 0
-982 981 0
982 47 -981 0
-983 -45 0
-983 982 0
983 45 -982 0
-984 -43 0
-984 983 0
984 43 -983 0
-985 -41 0
-985 984 0
985 41 -984 0
-986 -39 0
-986 985 0
986 39 -985 0
-987 -37 0
-987 986 0
987 37 -986 0
-988 -35 0
-988 987 0
988 35 -987 0
-989 -33 0
-989 988 0
989 33 -988 0
-990 -31 0
-990 989 0
990 31 -989 0
-991 -29 0
-991 990 0
991 29 -990 0
-992 -27 0
-992 991 0
992 27 -991 0
-993 -25 0
-993 992 0
993 25 -992 0
-994 -23 0
-994 993 0
994 23 -993 0
-995 -21 0
-995 994 0
995 21 -994 0
-996 -19 0
-996 995 0
996 19 -995 0
-997 -17 0
-997 996 0
997 17 -996 0
-998 -15 0
-998 997 0
998 15 -997 0
-999 13 0
-999 -998 0
999 -13 998 0
-1000 -11 0
-1000 -999 0
1000 11 999 0
-1001 -9 0
-1001 1000 0
1001 9 -1000 0
-1002 -7 0
-1002 1001 0
1002 7 -1001 0
-1003 -5 0
-1003 -1002 0
1003 5 1002 0
-1004 -980 0
-1004 -1003 0
1004 980 1003 0
-1005 -957 0
-1005 1004 0
1005 957 -1004 0
-1006 -82 0
-1006 -84 0
1006 82 84 0
-1007 -80 0
-1007 1006 0
1007 80 -1006 0
-1008 -78 0
-1008 1007 0
1008 78 -1007 0
-1009 -76 0
-1009 -1008 0
1009 76 1008 0
-1010 -127 0
-1010 -128 0
1010 127 128 0
-1011 -126 0
-1011 1010 0
1011 126 -1010 0
-1012 -125 0
-1012 1011 0
1012 125 -1011 0
-1013 -124 0
-1013 -1012 0
1013 124 1012 0
-1014 -121 0
-1014 -123 0
1014 121 123 0
-1015 -119 0
-1015 1014 0
1015 119 -1014 0
-1016 -117 0
-1016 1015 0
1016 117 -1015 0
-1017 -115 0
-1017 1016 0
1017 115 -1016 0
-1018 -113 0
-1018 1017 0
1018 113 -1017 0
-1019 -111 0
-1019 1018 0
1019 111 -1018 0
-1020 -109 0
-1020 1019 0
1020 109 -1019 0
-1021 -107 0
-1021 1020 0
1021 107 -1020 0
-1022 -105 0
-1022 1021 0
1022 105 -1021 0
-1023 -103 0
-1023 1022 0
1023 103 -1022 0
-1024 -101 0
-1024 1023 0
1024 101 -1023 0
-1025 -99 0
-1025 1024 0
1025 99 -1024 0
-1026 -97 0
-1026 1025 0
1026 97 -1025 0
-1027 -95 0
-1027 1026 0
1027 95 -1026 0
-1028 -93 0
-1028 1027 0
1028 93 -1027 0
-1029 -91 0
-1029 1028 0
1029 91 -1028 0
-1030 -89 0
-1030 1029 0
1030 89 -1029 0
-1031 -87 0
-1031 1030 0
1031 87 -1030 0
-1032 85 0
-1032 -1031 0
1032 -85 1031 0
-1033 -83 0
-1033 -1032 0
1033 83 1032 0
-1034 -81 0
-1034 1033 0
1034 81 -1033 0
-1035 -79 0
-1035 1034 0
1035 79 -1034 0
-1036 -77 0
-1036 -1035 0
1036 77 1035 0
-1037 1013 0
-1037 -1036 0
1037 -1013 1036 0
-1038 1009 0
-1038 1037 0
1038 -1009 -1037 0
-1039 1005 0
-1039 1038 0
1039 -1005 -1038 0
-1040 934 0
-1040 1039 0
1040 -934 -1039 0
-1041 932 0
-1041 1040 0
1041 -932 -1040 0
-1042 930 0
-1042 1041 0
1042 -930 -1041 0
-1043 153 0
-1043 -1042 0
1043 -153 1042 0
-1044 153 0
-1044 -1043 0
1044 -153 1043 0
-1045 -3 0
-1045 1044 0
1045 3 -1044 0
-1046 152 0
-1046 -1045 0
1046 -152 1045 0
-1047 152 0
-1047 -1046 0
1047 -152 1046 0
-1048 -1 0
-1048 1047 0
1048 1 -1047 0
-1049 151 0
-1049 -1048 0
1049 -151 1048 0
-1050 151 0
-1050 -1049 0
1050 -151 1049 0
-1051 -2 0
-1051 1050 0
1051 2 -1050 0
-1052 -149 0
-1052 1051 0
1052 149 -1051 0
-1053 -149 0
-1053 -1052 0
-1054 -150 0
-1054 1053 0
-1055 -149 0
-1055 1052 0
-1056 1054 0
-1056 1055 0
-1057 -150 0
-1057 1056 0
1057 0
